NAME /Users/henri/Research/solvers/instances/idol-instances/robust/collection/cbp_Subramanyam_et_al_2020/CapBud_N10_0/models/uncertain_technology_matrix/
ROWS
 N  OBJ
 L  capacity
 L  c_425
 L  c_426
 L  c_427
 L  c_428
 L  c_429
 L  c_430
 L  c_431
 L  c_432
 L  c_433
 L  c_434
COLUMNS
    MARKER    'MARKER'                 'INTORG'
    x_0        OBJ        -6.97274
    x_0        c_425      1
    x_0        capacity   1.39455
    x_1        OBJ        -4.63344
    x_1        c_426      1
    x_1        capacity   0.926688
    x_2        OBJ        -2.6462
    x_2        c_427      1
    x_2        capacity   0.529239
    x_3        OBJ        -5.75534
    x_3        c_428      1
    x_3        capacity   1.15107
    x_4        OBJ        -1.94901
    x_4        c_429      1
    x_4        capacity   0.389802
    x_5        OBJ        -7.41232
    x_5        c_430      1
    x_5        capacity   1.48246
    x_6        OBJ        -9.36928
    x_6        c_431      1
    x_6        capacity   1.87386
    x_7        OBJ        -6.59268
    x_7        c_432      1
    x_7        capacity   1.31854
    x_8        OBJ        -7.24994
    x_8        c_433      1
    x_8        capacity   1.44999
    x_9        OBJ        -1.64488
    x_9        c_434      1
    x_9        capacity   0.328977
    y_0        OBJ        -5.57819
    y_0        c_425      1
    y_0        capacity   1.39455
    y_1        OBJ        -3.70675
    y_1        c_426      1
    y_1        capacity   0.926688
    y_2        OBJ        -2.11696
    y_2        c_427      1
    y_2        capacity   0.529239
    y_3        OBJ        -4.60427
    y_3        c_428      1
    y_3        capacity   1.15107
    y_4        OBJ        -1.55921
    y_4        c_429      1
    y_4        capacity   0.389802
    y_5        OBJ        -5.92985
    y_5        c_430      1
    y_5        capacity   1.48246
    y_6        OBJ        -7.49542
    y_6        c_431      1
    y_6        capacity   1.87386
    y_7        OBJ        -5.27414
    y_7        c_432      1
    y_7        capacity   1.31854
    y_8        OBJ        -5.79995
    y_8        c_433      1
    y_8        capacity   1.44999
    y_9        OBJ        -1.31591
    y_9        c_434      1
    y_9        capacity   0.328977
    MARKER    'MARKER'                 'INTEND'
RHS
    RHS       capacity   27.1129
    RHS       c_425      1
    RHS       c_426      1
    RHS       c_427      1
    RHS       c_428      1
    RHS       c_429      1
    RHS       c_430      1
    RHS       c_431      1
    RHS       c_432      1
    RHS       c_433      1
    RHS       c_434      1
BOUNDS
 LI BND       x_0        0
 UI BND       x_0        1
 LI BND       x_1        0
 UI BND       x_1        1
 LI BND       x_2        0
 UI BND       x_2        1
 LI BND       x_3        0
 UI BND       x_3        1
 LI BND       x_4        0
 UI BND       x_4        1
 LI BND       x_5        0
 UI BND       x_5        1
 LI BND       x_6        0
 UI BND       x_6        1
 LI BND       x_7        0
 UI BND       x_7        1
 LI BND       x_8        0
 UI BND       x_8        1
 LI BND       x_9        0
 UI BND       x_9        1
 LI BND       y_0        0
 UI BND       y_0        1
 LI BND       y_1        0
 UI BND       y_1        1
 LI BND       y_2        0
 UI BND       y_2        1
 LI BND       y_3        0
 UI BND       y_3        1
 LI BND       y_4        0
 UI BND       y_4        1
 LI BND       y_5        0
 UI BND       y_5        1
 LI BND       y_6        0
 UI BND       y_6        1
 LI BND       y_7        0
 UI BND       y_7        1
 LI BND       y_8        0
 UI BND       y_8        1
 LI BND       y_9        0
 UI BND       y_9        1
ENDATA
